networks/zoo_79_624/zoo_79_624.txt
Number of groups: 44
Flow 36: {3 32} 
Flow 67: {37 38} {38 78} 
Flow 69: {5 1} {1 2} {2 42} 
Flow 78: {30 16} {16 13} {13 15} {15 55} 
Flow 86: {4 5} {5 30} {30 29} {29 28} {28 68} 
Flow 190: {7 5} {5 32} {32 72} 
Flow 207: {9 10} {10 16} {16 56} 
Flow 235: {10 26} {26 25} 
Flow 239: {1 31} 
Flow 270: {16 10} {10 9} {9 8} {8 35} {35 34} 
Flow 286: {14 15} 
Flow 293: {14 23} {23 27} {27 67} 
Flow 296: {14 13} {13 16} {16 30} {30 70} 
Flow 299: {3 33} 
Flow 323: {15 13} {13 23} {23 28} {28 29} {29 69} 
Flow 360: {17 5} 
Flow 364: {18 5} {5 7} {7 8} {8 48} 
Flow 369: {18 31} 
Flow 384: {5 18} {18 58} 
Flow 408: {24 30} {30 10} {10 50} 
Flow 424: {25 26} {26 9} {9 5} {5 4} {4 44} 
Flow 427: {26 8} {8 7} {7 47} 
Flow 434: {26 10} {10 30} {30 24} {24 23} {23 63} 
Flow 440: {25 35} {35 33} {33 73} 
Flow 461: {27 23} {23 24} {24 6} {6 5} 
Flow 462: {29 30} {30 5} {5 3} {3 43} 
Flow 477: {6 4} {4 31} {31 71} 
Flow 491: {28 23} {23 13} {13 53} 
Flow 527: {2 34} {34 74} 
Flow 533: {32 5} {5 45} 
Flow 534: {32 3} {3 1} {1 35} 
Flow 537: {33 3} {3 5} {5 6} {6 46} 
Flow 543: {33 35} {35 25} {25 65} 
Flow 549: {34 2} {2 1} 
Flow 550: {34 35} {35 75} 
Flow 557: {35 8} {8 9} {9 49} 
Flow 562: {8 26} 
Flow 566: {35 1} {1 3} {3 36} {36 76} 
Flow 575: {36 3} {3 39} {39 79} 
Flow 591: {39 40} {40 31} 
Flow 608: {31 18} 
Flow 610: {31 4} {4 6} {6 24} {24 64} 
Flow 612: {31 1} {1 5} {5 9} {9 26} {26 66} 
Flow 622: {40 39} {39 3} {3 37} {37 77} 
Time taken running everything: 14 seconds
